p cnf 35 462
1 2 3 4 0
-1 -2 0
-1 -3 0
-1 -4 0
-1 -5 0
-2 -3 0
-2 -4 0
-2 -5 0
-3 -4 0
-3 -5 0
-4 -5 0
6 7 8 9 0
-6 -7 0
-6 -8 0
-6 -9 0
-6 -10 0
-7 -8 0
-7 -9 0
-7 -10 0
-8 -9 0
-8 -10 0
-9 -10 0
11 12 13 14 0
-11 -12 0
-11 -13 0
-11 -14 0
-11 -15 0
-12 -13 0
-12 -14 0
-12 -15 0
-13 -14 0
-13 -15 0
-14 -15 0
16 17 18 19 0
-16 -17 0
-16 -18 0
-16 -19 0
-16 -20 0
-17 -18 0
-17 -19 0
-17 -20 0
-18 -19 0
-18 -20 0
-19 -20 0
21 22 23 24 25 0
-21 -22 0
-21 -23 0
-21 -24 0
-21 -25 0
-22 -23 0
-22 -24 0
-22 -25 0
-23 -24 0
-23 -25 0
-24 -25 0
26 27 28 29 30 0
-26 -27 0
-26 -28 0
-26 -29 0
-26 -30 0
-27 -28 0
-27 -29 0
-27 -30 0
-28 -29 0
-28 -30 0
-29 -30 0
31 32 33 0
-31 -32 0
-31 -33 0
-31 -34 0
-31 -35 0
-32 -33 0
-32 -34 0
-32 -35 0
-33 -34 0
-33 -35 0
-34 -35 0
-1 -6 0
-1 -7 0
-1 -8 0
-2 -6 0
-2 -7 0
-2 -8 0
-2 -9 0
-3 -6 0
-3 -7 0
-3 -8 0
-3 -9 0
-3 -10 0
-4 -6 0
-4 -7 0
-4 -8 0
-4 -9 0
-4 -10 0
-4 0
-5 -6 0
-5 -7 0
-5 -8 0
-5 -9 0
-5 -10 0
-5 0
-5 0
-11 -16 0
-11 -17 0
-11 -18 0
-12 -16 0
-12 -17 0
-12 -18 0
-12 -19 0
-13 -16 0
-13 -17 0
-13 -18 0
-13 -19 0
-13 -20 0
-14 -16 0
-14 -17 0
-14 -18 0
-14 -19 0
-14 -20 0
-14 0
-15 -16 0
-15 -17 0
-15 -18 0
-15 -19 0
-15 -20 0
-15 0
-15 0
-21 -26 0
-21 -27 0
-22 -26 0
-22 -27 0
-22 -28 0
-23 -26 0
-23 -27 0
-23 -28 0
-23 -29 0
-24 -26 0
-24 -27 0
-24 -28 0
-24 -29 0
-24 -30 0
-25 -26 0
-25 -27 0
-25 -28 0
-25 -29 0
-25 -30 0
-25 0
1 6 11 16 0
1 6 11 16 21 26 0
1 6 11 16 31 0
1 6 21 26 0
1 6 31 0
1 6 21 26 31 0
11 16 21 26 0
11 16 31 0
11 16 21 26 31 0
21 26 31 0
-1 -11 -21 -31 0
-1 -11 -26 -31 0
-1 -16 -21 -31 0
-1 -16 -26 -31 0
-6 -11 -21 -31 0
-6 -11 -26 -31 0
-6 -16 -21 -31 0
-6 -16 -26 -31 0
2 1 7 6 12 11 17 16 0
2 1 7 6 12 11 17 16 22 27 0
2 1 7 6 12 11 17 16 32 31 0
2 1 7 6 22 27 0
2 1 7 6 32 31 0
2 1 7 6 22 27 32 31 0
12 11 17 16 22 27 0
12 11 17 16 32 31 0
12 11 17 16 22 27 32 31 0
22 27 32 31 0
-2 -12 -22 -32 0
-2 -12 -22 -31 0
-2 -12 -27 -32 0
-2 -12 -27 -31 0
-2 -11 -22 -32 0
-2 -11 -22 -31 0
-2 -11 -27 -32 0
-2 -11 -27 -31 0
-2 -17 -22 -32 0
-2 -17 -22 -31 0
-2 -17 -27 -32 0
-2 -17 -27 -31 0
-2 -16 -22 -32 0
-2 -16 -22 -31 0
-2 -16 -27 -32 0
-2 -16 -27 -31 0
-1 -12 -22 -32 0
-1 -12 -22 -31 0
-1 -12 -27 -32 0
-1 -12 -27 -31 0
-1 -11 -22 -32 0
-1 -11 -22 -31 0
-1 -11 -27 -32 0
-1 -11 -27 -31 0
-1 -17 -22 -32 0
-1 -17 -22 -31 0
-1 -17 -27 -32 0
-1 -17 -27 -31 0
-1 -16 -22 -32 0
-1 -16 -22 -31 0
-1 -16 -27 -32 0
-1 -16 -27 -31 0
-7 -12 -22 -32 0
-7 -12 -22 -31 0
-7 -12 -27 -32 0
-7 -12 -27 -31 0
-7 -11 -22 -32 0
-7 -11 -22 -31 0
-7 -11 -27 -32 0
-7 -11 -27 -31 0
-7 -17 -22 -32 0
-7 -17 -22 -31 0
-7 -17 -27 -32 0
-7 -17 -27 -31 0
-7 -16 -22 -32 0
-7 -16 -22 -31 0
-7 -16 -27 -32 0
-7 -16 -27 -31 0
-6 -12 -22 -32 0
-6 -12 -22 -31 0
-6 -12 -27 -32 0
-6 -12 -27 -31 0
-6 -11 -22 -32 0
-6 -11 -22 -31 0
-6 -11 -27 -32 0
-6 -11 -27 -31 0
-6 -17 -22 -32 0
-6 -17 -22 -31 0
-6 -17 -27 -32 0
-6 -17 -27 -31 0
-6 -16 -22 -32 0
-6 -16 -22 -31 0
-6 -16 -27 -32 0
-6 -16 -27 -31 0
3 2 8 7 13 12 18 17 23 28 33 32 31 0
-3 -2 -8 -7 -13 -12 -18 -17 0
-3 -2 -8 -7 0
-3 -2 -8 -7 -23 -28 0
-3 -2 -8 -7 -33 -32 -31 0
-13 -12 -18 -17 0
-13 -12 -18 -17 -23 -28 0
-13 -12 -18 -17 -33 -32 -31 0
-23 -28 0
-33 -32 -31 0
-23 -28 -33 -32 -31 0
4 3 9 8 14 13 19 18 0
4 3 9 8 14 13 19 18 24 29 0
4 3 9 8 14 13 19 18 34 33 32 0
4 3 9 8 24 29 0
4 3 9 8 34 33 32 0
4 3 9 8 24 29 34 33 32 0
14 13 19 18 24 29 0
14 13 19 18 34 33 32 0
14 13 19 18 24 29 34 33 32 0
24 29 34 33 32 0
-4 -14 -24 -34 0
-4 -14 -24 -33 0
-4 -14 -24 -32 0
-4 -14 -29 -34 0
-4 -14 -29 -33 0
-4 -14 -29 -32 0
-4 -13 -24 -34 0
-4 -13 -24 -33 0
-4 -13 -24 -32 0
-4 -13 -29 -34 0
-4 -13 -29 -33 0
-4 -13 -29 -32 0
-4 -19 -24 -34 0
-4 -19 -24 -33 0
-4 -19 -24 -32 0
-4 -19 -29 -34 0
-4 -19 -29 -33 0
-4 -19 -29 -32 0
-4 -18 -24 -34 0
-4 -18 -24 -33 0
-4 -18 -24 -32 0
-4 -18 -29 -34 0
-4 -18 -29 -33 0
-4 -18 -29 -32 0
-3 -14 -24 -34 0
-3 -14 -24 -33 0
-3 -14 -24 -32 0
-3 -14 -29 -34 0
-3 -14 -29 -33 0
-3 -14 -29 -32 0
-3 -13 -24 -34 0
-3 -13 -24 -33 0
-3 -13 -24 -32 0
-3 -13 -29 -34 0
-3 -13 -29 -33 0
-3 -13 -29 -32 0
-3 -19 -24 -34 0
-3 -19 -24 -33 0
-3 -19 -24 -32 0
-3 -19 -29 -34 0
-3 -19 -29 -33 0
-3 -19 -29 -32 0
-3 -18 -24 -34 0
-3 -18 -24 -33 0
-3 -18 -24 -32 0
-3 -18 -29 -34 0
-3 -18 -29 -33 0
-3 -18 -29 -32 0
-9 -14 -24 -34 0
-9 -14 -24 -33 0
-9 -14 -24 -32 0
-9 -14 -29 -34 0
-9 -14 -29 -33 0
-9 -14 -29 -32 0
-9 -13 -24 -34 0
-9 -13 -24 -33 0
-9 -13 -24 -32 0
-9 -13 -29 -34 0
-9 -13 -29 -33 0
-9 -13 -29 -32 0
-9 -19 -24 -34 0
-9 -19 -24 -33 0
-9 -19 -24 -32 0
-9 -19 -29 -34 0
-9 -19 -29 -33 0
-9 -19 -29 -32 0
-9 -18 -24 -34 0
-9 -18 -24 -33 0
-9 -18 -24 -32 0
-9 -18 -29 -34 0
-9 -18 -29 -33 0
-9 -18 -29 -32 0
-8 -14 -24 -34 0
-8 -14 -24 -33 0
-8 -14 -24 -32 0
-8 -14 -29 -34 0
-8 -14 -29 -33 0
-8 -14 -29 -32 0
-8 -13 -24 -34 0
-8 -13 -24 -33 0
-8 -13 -24 -32 0
-8 -13 -29 -34 0
-8 -13 -29 -33 0
-8 -13 -29 -32 0
-8 -19 -24 -34 0
-8 -19 -24 -33 0
-8 -19 -24 -32 0
-8 -19 -29 -34 0
-8 -19 -29 -33 0
-8 -19 -29 -32 0
-8 -18 -24 -34 0
-8 -18 -24 -33 0
-8 -18 -24 -32 0
-8 -18 -29 -34 0
-8 -18 -29 -33 0
-8 -18 -29 -32 0
5 4 10 9 15 14 20 19 0
5 4 10 9 15 14 20 19 25 30 0
5 4 10 9 15 14 20 19 35 34 33 0
5 4 10 9 25 30 0
5 4 10 9 35 34 33 0
5 4 10 9 25 30 35 34 33 0
15 14 20 19 25 30 0
15 14 20 19 35 34 33 0
15 14 20 19 25 30 35 34 33 0
25 30 35 34 33 0
-5 -15 -25 -35 0
-5 -15 -25 -34 0
-5 -15 -25 -33 0
-5 -15 -30 -35 0
-5 -15 -30 -34 0
-5 -15 -30 -33 0
-5 -14 -25 -35 0
-5 -14 -25 -34 0
-5 -14 -25 -33 0
-5 -14 -30 -35 0
-5 -14 -30 -34 0
-5 -14 -30 -33 0
-5 -20 -25 -35 0
-5 -20 -25 -34 0
-5 -20 -25 -33 0
-5 -20 -30 -35 0
-5 -20 -30 -34 0
-5 -20 -30 -33 0
-5 -19 -25 -35 0
-5 -19 -25 -34 0
-5 -19 -25 -33 0
-5 -19 -30 -35 0
-5 -19 -30 -34 0
-5 -19 -30 -33 0
-4 -15 -25 -35 0
-4 -15 -25 -34 0
-4 -15 -25 -33 0
-4 -15 -30 -35 0
-4 -15 -30 -34 0
-4 -15 -30 -33 0
-4 -14 -25 -35 0
-4 -14 -25 -34 0
-4 -14 -25 -33 0
-4 -14 -30 -35 0
-4 -14 -30 -34 0
-4 -14 -30 -33 0
-4 -20 -25 -35 0
-4 -20 -25 -34 0
-4 -20 -25 -33 0
-4 -20 -30 -35 0
-4 -20 -30 -34 0
-4 -20 -30 -33 0
-4 -19 -25 -35 0
-4 -19 -25 -34 0
-4 -19 -25 -33 0
-4 -19 -30 -35 0
-4 -19 -30 -34 0
-4 -19 -30 -33 0
-10 -15 -25 -35 0
-10 -15 -25 -34 0
-10 -15 -25 -33 0
-10 -15 -30 -35 0
-10 -15 -30 -34 0
-10 -15 -30 -33 0
-10 -14 -25 -35 0
-10 -14 -25 -34 0
-10 -14 -25 -33 0
-10 -14 -30 -35 0
-10 -14 -30 -34 0
-10 -14 -30 -33 0
-10 -20 -25 -35 0
-10 -20 -25 -34 0
-10 -20 -25 -33 0
-10 -20 -30 -35 0
-10 -20 -30 -34 0
-10 -20 -30 -33 0
-10 -19 -25 -35 0
-10 -19 -25 -34 0
-10 -19 -25 -33 0
-10 -19 -30 -35 0
-10 -19 -30 -34 0
-10 -19 -30 -33 0
-9 -15 -25 -35 0
-9 -15 -25 -34 0
-9 -15 -25 -33 0
-9 -15 -30 -35 0
-9 -15 -30 -34 0
-9 -15 -30 -33 0
-9 -14 -25 -35 0
-9 -14 -25 -34 0
-9 -14 -25 -33 0
-9 -14 -30 -35 0
-9 -14 -30 -34 0
-9 -14 -30 -33 0
-9 -20 -25 -35 0
-9 -20 -25 -34 0
-9 -20 -25 -33 0
-9 -20 -30 -35 0
-9 -20 -30 -34 0
-9 -20 -30 -33 0
-9 -19 -25 -35 0
-9 -19 -25 -34 0
-9 -19 -25 -33 0
-9 -19 -30 -35 0
-9 -19 -30 -34 0
-9 -19 -30 -33 0
